words_hard_train/8337.qaiger
aag 58 16 0 1 42
2
4
8
10
14
18
24
42
50
60
68
74
78
86
98
106
116
6 3 5
12 9 11
16 12 15
20 16 19
22 6 20
26 22 25
28 8 10
30 28 18
32 31 6
34 32 21
36 27 35
38 23 24
40 37 39
44 41 43
46 40 42
48 45 47
52 49 51
54 30 2
56 31 3
58 55 57
62 59 61
64 57 4
66 65 33
70 67 69
72 63 71
76 13 75
80 79 9
82 77 81
84 83 29
88 87 14
90 85 89
92 72 90
94 29 19
96 95 31
100 96 99
102 92 101
104 34 24
108 105 107
110 36 39
112 108 111
114 102 113
116 53 115
i0 2 y1[4]
i1 2 y1[5]
i2 2 y1[1]
i3 2 y1[2]
i4 2 y1[0]
i5 2 y1[3]
i6 2 y1[6]
i7 2 y1[7]
i8 1 x2[7]
i9 1 x2[4]
i10 1 x2[5]
i11 1 x2[2]
i12 1 x2[1]
i13 1 x2[0]
i14 1 x2[3]
i15 1 x2[6]
o0 bv[0]
c
simplified
  >
    unary minus
      1
    or
      1 x2
      subtract
        141
        2 y1
