words_hard_train/8337.qaiger.qdimacs
p cnf 58 127
a 34 37 39 43 49 53 25 30 0
e 1 2 3 4 5 6 7 8 9 10 11 12 13 14 15 16 17 18 19 20 21 22 23 24 26 27 28 29 31 32 33 35 36 38 40 41 42 44 45 46 47 48 50 51 52 54 55 56 57 58 0
1 2 3 0
-1 -3 0
-2 -3 0
4 5 6 0
-4 -6 0
-5 -6 0
-6 7 8 0
6 -8 0
-7 -8 0
-8 9 10 0
8 -10 0
-9 -10 0
-3 -10 11 0
3 -11 0
10 -11 0
-11 12 13 0
11 -13 0
-12 -13 0
-4 -5 14 0
4 -14 0
5 -14 0
-14 -9 15 0
14 -15 0
9 -15 0
15 -3 16 0
-15 -16 0
3 -16 0
-16 10 17 0
16 -17 0
-10 -17 0
13 17 18 0
-13 -18 0
-17 -18 0
11 -12 19 0
-11 -19 0
12 -19 0
18 19 20 0
-18 -20 0
-19 -20 0
20 21 22 0
-20 -22 0
-21 -22 0
-20 -21 23 0
20 -23 0
21 -23 0
22 23 24 0
-22 -24 0
-23 -24 0
24 25 26 0
-24 -26 0
-25 -26 0
-15 -1 27 0
15 -27 0
1 -27 0
15 1 28 0
-15 -28 0
-1 -28 0
27 28 29 0
-27 -29 0
-28 -29 0
29 30 31 0
-29 -31 0
-30 -31 0
28 -2 32 0
-28 -32 0
2 -32 0
32 16 33 0
-32 -33 0
-16 -33 0
33 34 35 0
-33 -35 0
-34 -35 0
31 35 36 0
-31 -36 0
-35 -36 0
6 37 38 0
-6 -38 0
-37 -38 0
39 4 40 0
-39 -40 0
-4 -40 0
38 40 41 0
-38 -41 0
-40 -41 0
41 14 42 0
-41 -42 0
-14 -42 0
43 -7 44 0
-43 -44 0
7 -44 0
42 44 45 0
-42 -45 0
-44 -45 0
-36 -45 46 0
36 -46 0
45 -46 0
14 9 47 0
-14 -47 0
-9 -47 0
47 15 48 0
-47 -48 0
-15 -48 0
-48 49 50 0
48 -50 0
-49 -50 0
-46 50 51 0
46 -51 0
-50 -51 0
-17 -12 52 0
17 -52 0
12 -52 0
52 53 54 0
-52 -54 0
-53 -54 0
-18 19 55 0
18 -55 0
-19 -55 0
-54 55 56 0
54 -56 0
-55 -56 0
-51 56 57 0
51 -57 0
-56 -57 0
26 57 58 0
-26 -58 0
-57 -58 0
58 0
